data/benchmarks/bayes/75-15-10-q.cnf
p cnf 1065 1071
c weights 0.131964 0.868036 1 1 1 1 1 1 1 1 1 1 1 1 1 1 1 1 1 1 1 1 1 1 1 1 1 1 1 1 1 1 1 1 1 1 1 1 1 1 1 1 1 1 1 1 1 1 1 1 1 1 1 1 1 1 1 1 1 1 1 1 1 1 1 1 1 1 1 1 1 1 1 1 1 1 1 1 1 1 1 1 1 1 1 1 1 1 1 1 1 1 1 1 1 1 1 1 1 1 1 1 1 1 1 1 1 1 1 1 1 1 1 1 1 1 1 1 1 1 1 1 1 1 1 1 1 1 1 1 1 1 1 1 1 1 1 1 1 1 1 1 1 1 1 1 1 1 1 1 1 1 1 1 1 1 1 1 1 1 1 1 1 1 1 1 1 1 1 1 1 1 1 1 1 1 1 1 1 1 1 1 1 1 1 1 1 1 1 1 1 1 1 1 1 1 1 1 1 1 1 1 1 1 1 1 1 1 1 1 1 1 1 1 1 1 1 1 1 1 1 1 1 1 1 1 1 1 1 1 1 1 1 1 1 1 1 1 1 1 1 1 1 1 1 1 1 1 1 1 1 1 1 1 1 1 1 1 1 1 1 1 1 1 1 1 1 1 1 1 1 1 1 1 1 1 1 1 1 1 1 1 1 1 1 1 1 1 1 1 1 1 1 1 1 1 1 1 1 1 1 1 1 1 1 1 1 1 1 1 1 1 1 1 1 1 1 1 1 1 1 1 1 1 1 1 1 1 1 1 1 1 1 1 1 1 1 1 1 1 1 1 1 1 1 1 1 1 1 1 1 1 1 1 1 1 1 1 1 1 1 1 1 1 1 1 1 1 1 1 1 1 1 1 1 1 1 1 1 1 1 1 1 1 1 1 1 1 1 1 1 1 1 1 1 1 1 1 1 1 1 1 1 1 1 1 1 1 1 1 1 1 1 1 1 1 1 1 1 1 1 1 1 1 1 1 1 1 1 1 1 1 1 1 1 1 1 1 1 1 1 1 1 1 1 1 1 1 1 1 0.053667 0.946333 0.663792 0.33620799999999995 0.5 0.5 0.5 0.5 0.5 0.5 0.5 0.5 0.5 0.5 0.5 0.5 0.5 0.5 0.5 0.5 0.5 0.5 0.5 0.5 0.5 0.5 0.5 0.5 0.5 0.5 0.5 0.5 0.5 0.5 0.5 0.5 0.5 0.5 0.5 0.5 0.5 0.5 0.5 0.5 0.5 0.5 0.5 0.5 0.5 0.5 0.5 0.5 0.5 0.5 0.5 0.5 0.5 0.5 0.5 0.5 0.68597 0.31403000000000003 0.16095 0.83905 0.33833 0.66167 0.0758739 0.9241261000000001 0.5 0.5 0.5 0.5 0.5 0.5 0.5 0.5 0.659815 0.34018499999999996 0.572665 0.427335 0.516642 0.48335799999999995 0.280912 0.719088 0.648433 0.35156699999999996 0.350497 0.6495029999999999 0.116963 0.883037 0.920803 0.07919699999999996 0.5 0.5 0.5 0.5 0.5 0.5 0.5 0.5 0.5 0.5 0.5 0.5 0.5 0.5 0.5 0.5 0.5 0.5 0.5 0.5 0.5 0.5 0.5 0.5 0.5 0.5 0.5 0.5 0.5 0.5 0.5 0.5 0.5 0.5 0.5 0.5 0.5 0.5 0.5 0.5 0.5 0.5 0.5 0.5 0.5 0.5 0.5 0.5 0.5 0.5 0.5 0.5 0.5 0.5 0.5 0.5 0.834476 0.165524 0.48753 0.51247 0.854145 0.14585499999999996 0.687444 0.31255599999999994 0.5 0.5 0.5 0.5 0.5 0.5 0.5 0.5 0.5 0.5 0.5 0.5 0.5 0.5 0.5 0.5 0.5 0.5 0.5 0.5 0.5 0.5 0.5 0.5 0.5 0.5 0.5 0.5 0.5 0.5 0.5 0.5 0.5 0.5 0.5 0.5 0.5 0.5 0.5 0.5 0.5 0.5 0.5 0.5 0.5 0.5 0.5 0.5 0.5 0.5 0.5 0.5 0.872443 0.12755700000000003 0.677376 0.322624 0.219095 0.780905 0.759417 0.240583 0.5 0.5 0.5 0.5 0.5 0.5 0.5 0.5 0.378075 0.6219250000000001 0.723925 0.27607499999999996 0.615127 0.384873 0.15215 0.84785 0.348201 0.651799 0.194272 0.805728 0.456553 0.543447 0.569327 0.430673 0.5 0.5 0.5 0.5 0.5 0.5 0.5 0.5 0.0267386 0.9732613999999999 0.236414 0.763586 0.0250978 0.9749022 0.719329 0.280671 0.5 0.5 0.5 0.5 0.5 0.5 0.5 0.5 0.5 0.5 0.5 0.5 0.5 0.5 0.5 0.5 0.5 0.5 0.5 0.5 0.5 0.5 0.5 0.5 0.597518 0.402482 0.538162 0.46183799999999997 0.147272 0.852728 0.0540708 0.9459292 0.5 0.5 0.5 0.5 0.5 0.5 0.5 0.5 0.5 0.5 0.5 0.5 0.5 0.5 0.5 0.5 0.5 0.5 0.5 0.5 0.5 0.5 0.5 0.5 0.5 0.5 0.5 0.5 0.5 0.5 0.5 0.5 0.5 0.5 0.5 0.5 0.5 0.5 0.5 0.5 0.5 0.5 0.5 0.5 0.5 0.5 0.5 0.5 0.5 0.5 0.5 0.5 0.5 0.5 0.5 0.5 0.5 0.5 0.5 0.5 0.750596 0.24940399999999996 0.171253 0.828747 0.0806407 0.9193593 0.10075 0.89925 0.5 0.5 0.5 0.5 0.5 0.5 0.5 0.5 0.5 0.5 0.5 0.5 0.5 0.5 0.5 0.5 0.5 0.5 0.5 0.5 0.5 0.5 0.5 0.5 0.5 0.5 0.5 0.5 0.5 0.5 0.5 0.5 0.747117 0.25288299999999997 0.839891 0.16010899999999995 0.626886 0.37311399999999995 0.866887 0.13311300000000004 0.5 0.5 0.5 0.5 0.5 0.5 0.5 0.5 0.5 0.5 0.5 0.5 0.76091 0.23909000000000002 0.0772171 0.9227829 0.37141 0.62859 0.0967023 0.9032977 0.654818 0.345182 0.340997 0.659003 0.564395 0.435605 0.724812 0.275188 0.5 0.5 0.5 0.5 0.5 0.5 0.5 0.5 0.5 0.5 0.5 0.5 0.5 0.5 0.5 0.5 0.5 0.5 0.5 0.5 0.5 0.5 0.5 0.5 0.632323 0.36767700000000003 0.725664 0.274336 0.624873 0.375127 0.556901 0.443099 0.5 0.5 0.5 0.5 0.5 0.5 0.5 0.5 0.5 0.5 0.5 0.5 0.5 0.5 0.5 0.5 0.137302 0.862698 0.656605 0.343395 0.361661 0.638339 0.581022 0.41897799999999996 0.443597 0.556403 0.256175 0.743825 0.013391 0.986609 0.456864 0.5431360000000001 0.5 0.5 0.5 0.5 0.5 0.5 0.5 0.5 0.5 0.5 0.5 0.5 0.5 0.5 0.5 0.5 0.507914 0.492086 0.884899 0.11510100000000001 0.612283 0.387717 0.421967 0.578033 0.5 0.5 0.5 0.5 0.5 0.5 0.5 0.5 0.5 0.5 0.5 0.5 0.5 0.5 0.5 0.5 0.5 0.5 0.5 0.5 0.0518762 0.9481238 0.777789 0.22221100000000005 0.345097 0.654903 0.730322 0.269678 0.442115 0.557885 0.697924 0.302076 0.610129 0.38987099999999997 0.681721 0.318279 0.5 0.5 0.5 0.5 0.5 0.5 0.5 0.5 0.62184 0.37816000000000005 0.576873 0.42312700000000003 0.323566 0.676434 0.684473 0.315527 0.5 0.5 0.5 0.5 0.5 0.5 0.5 0.5 0.042044 0.957956 0.77223 0.22777000000000003 0.557756 0.44224399999999997 0.930277 0.06972299999999998 0.335545 0.664455 0.275373 0.724627 0.554428 0.44557199999999997 0.156735 0.8432649999999999 0.5 0.5 0.5 0.5 0.5 0.5 0.5 0.5 0.0462022 0.9537978 0.895801 0.10419900000000004 0.807814 0.19218599999999997 0.201108 0.7988919999999999 0.429654 0.570346 0.777982 0.22201800000000005 0.17555 0.82445 0.114127 0.885873 0.5 0.5 0.5 0.5 0.5 0.5 0.5 0.5 0.991283 0.008716999999999975 0.329435 0.6705650000000001 0.624736 0.37526400000000004 0.549039 0.45096099999999995 0.5 0.5 0.5 0.5 0.5 0.5 0.5 0.5 0.5 0.5 0.5 0.5 0.5 0.5 0.5 0.5 0.5 0.5 0.5 0.5 0.5 0.5 0.5 0.5 0.5 0.5 0.5 0.5 0.677076 0.322924 0.00347419 0.99652581 0.958035 0.04196500000000003 0.0227685 0.9772315 0.5 0.5 0.5 0.5 0.5 0.5 0.5 0.5 0.5 0.5 0.5 0.5 0.5 0.5 0.5 0.5 0.645599 0.35440099999999997 0.10508 0.8949199999999999 0.763365 0.23663500000000004 0.686918 0.31308199999999997 0.5 0.5 0.5 0.5 0.5 0.5 0.5 0.5 0.5 0.5 0.5 0.5 0.5 0.5 0.5 0.5 0.359702 0.640298 0.283593 0.716407 0.906465 0.09353500000000003 0.317737 0.6822630000000001 0.5 0.5 0.5 0.5 0.5 0.5 0.5 0.5 0.739031 0.260969 0.891054 0.10894599999999999 0.149521 0.850479 0.500046 0.499954 0.5 0.5 0.5 0.5 0.5 0.5 0.5 0.5 0.923783 0.07621699999999998 0.691967 0.308033 0.327664 0.672336 0.93322 0.06677999999999995 0.429204 0.5707960000000001 0.640643 0.35935700000000004 0.866159 0.133841 0.944999 0.05500099999999997 0.5 0.5 0.5 0.5 0.5 0.5 0.5 0.5 0.5 0.5 0.5 0.5 0.5 0.5 0.5 0.5 0.5 0.5 0.5 0.5 0.5 0.5 0.5 0.5 0.5 0.5 0.5 0.5 0.5 0.5 0.5 0.5 0.5 0.5 0.5 0.5 0.5 0.5 0.5 0.5 0.5 0.5 0.5 0.5 0.5 0.5 0.5 0.5 0.5 0.5 0.5 0.5 0.5 0.5 0.5 0.5 0.5 0.5 0.5 0.5 0.5 0.5 0.5 0.5 0.5 0.5 0.5 0.5 0.5 0.5 0.5 0.5 0.5 0.5 0.5 0.5 0.5 0.5 0.5 0.5 0.5 0.5 0.5 0.5 0.5 0.5 0.5 0.5 0.5 0.5 0.5 0.5 0.5 0.5 0.5 0.5 0.5 0.5 0.5 0.5 0.5 0.5 0.5 0.5 0.5 0.5 0.5 0.5 0.60204 0.39796 0.310818 0.689182 0.219195 0.780805 0.199138 0.800862 0.5 0.5 0.5 0.5 0.5 0.5 0.5 0.5 0.5 0.5 0.5 0.5 0.5 0.5 0.5 0.5 0.5 0.5 0.5 0.5 0.493486 0.506514 0.615299 0.38470099999999996 0.350985 0.649015 0.0962605 0.9037395 0.5 0.5 0.5 0.5 0.5 0.5 0.5 0.5 0.5 0.5 0.5 0.5 0.5 0.5 0.5 0.5 0.760858 0.23914199999999997 0.647322 0.35267800000000005 0.995416 0.0045840000000000325 0.426256 0.573744 0.553628 0.446372 0.0494796 0.9505204 0.347421 0.652579 0.142504 0.857496 0.5 0.5 0.5 0.5 0.5 0.5 0.5 0.5 0.5 0.5 0.5 0.5 0.5 0.5 0.5 0.5 0.5 0.5 0.5 0.5 0.5 0.5 0.5 0.5 0.17291 0.82709 0.070278 0.929722 0.104877 0.895123 0.62295 0.37705 0.5 0.5 0.5 0.5 0.5 0.5 0.5 0.5 0.030009 0.969991 0.450199 0.549801 0.859543 0.14045700000000005 0.37743 0.6225700000000001 0.5 0.5 0.5 0.5 0.5 0.5 0.5 0.5 0.5 0.5 0.5 0.5 0.5 0.5 0.5 0.5 0.5 0.5 0.5 0.5 0.547071 0.452929 0.976775 0.02322500000000005 0.516882 0.48311800000000005 0.457709 0.5422910000000001 0.5 0.5 0.5 0.5 0.5 0.5 0.5 0.5 0.5 0.5 0.5 0.5 0.5 0.5 0.5 0.5 0.5 0.5 0.5 0.5 0.5 0.5 0.5 0.5 0.5 0.5 0.5 0.5 0.5 0.5 0.5 0.5 0.5 0.5 0.5 0.5 0.5 0.5 0.5 0.5 0.489937 0.5100629999999999 0.111222 0.888778 0.792113 0.20788700000000004 0.00681909 0.99318091 0.5 0.5 0.5 0.5 0.5 0.5 0.5 0.5 0.5 0.5 0.5 0.5 0.5 0.5 0.5 0.5 0.172136 0.8278639999999999 0.76608 0.23392000000000002 0.663429 0.33657099999999995 0.810866 0.18913400000000002 0.5 0.5 0.5 0.5 0.5 0.5 0.5 0.5 0.5 0.5 0.5 0.5 0.5 0.5 0.5 0.5 0.5 0.5 0.5 0.5 0.5 0.5 0.5 0.5 0.5 0.5 0.5 0.5 0.5 0.5 0.5 0.5 0.5 0.5 0.5 0.5 0.307447 0.692553 0.221431 0.7785690000000001 0.97344 0.026560000000000028 0.0735266 0.9264734 0.784306 0.21569400000000005 0.24282 0.75718 0.613296 0.38670400000000005 0.422609 0.577391 0.5 0.5 0.5 0.5 0.5 0.5 0.5 0.5 0.5 0.5 0.5 0.5 0.5 0.5 0.5 0.5 0.5 0.5 0.5 0.5 0.5 0.5 0.5 0.5 0.5 0.5 0.5 0.5 0.5 0.5 0.5 0.5 0.320798 0.679202 0.0662 0.9338 0.139897 0.8601030000000001 0.294237 0.7057629999999999 0.5 0.5 0.5 0.5 0.5 0.5 0.5 0.5 0.5 0.5 0.5 0.5 0.5 0.5 0.5 0.5 0.5 0.5 0.5 0.5 0.5 0.5 0.5 0.5 0.299422 0.7005779999999999 0.441171 0.558829 0.378322 0.621678 0.949676 0.050324000000000035 0.5 0.5 0.5 0.5 0.5 0.5 0.5 0.5 0.5 0.5 0.5 0.5 0.5 0.5 0.5 0.5 0.5 0.5 0.5 0.5 0.5 0.5 0.5 0.5 0.5 0.5 0.5 0.5 0.5 0.5 0.5 0.5 0.5 0.5 0.5 0.5 0.5 0.5 0.5 0.5 0.5 0.5 0.5 0.5 0.0666195 0.9333805 0.827948 0.17205199999999998 0.249326 0.7506740000000001 0.0739675 0.9260325 0.5 0.5 0.5 0.5 0.5 0.5 0.5 0.5 0.5 0.5 0.5 0.5 0.5 0.5 0.5 0.5 0.506318 0.49368199999999995 0.0145992 0.9854008 0.532319 0.467681 0.107292 0.8927080000000001 0.5 0.5 0.5 0.5 0.5 0.5 0.5 0.5 0.5 0.5 0.5 0.5 0.5 0.5 0.5 0.5 0.5 0.5 0.5 0.5 0.5 0.5 0.5 0.5 0.5 0.5 0.5 0.5 0.5 0.5 0.5 0.5 0.5 0.5 0.5 0.5 0.5 0.5 0.5 0.5 0.25078 0.74922 0.215913 0.784087 0.985282 0.014718000000000009 0.264657 0.7353430000000001 0.5 0.5 0.5 0.5 0.5 0.5 0.5 0.5 0.5 0.5 0.5 0.5 0.5 0.5 0.5 0.5 0.5 0.5 0.5 0.5 0.5 0.5 0.5 0.5 0.5 0.5 0.5 0.5 0.5 0.5 0.5 0.5 0.5 0.5 0.5 0.5 0.5 0.5 0.5 0.5 0.5 0.5 0.5 0.5 0.5 0.5 0.5 0.5 0.5 0.5 0.5 0.5 0.5 0.5 0.5 0.5 0.5 0.5 0.5 0.5 0.5 0.5 0.5 0.5 0.5 0.5 0.5 0.5 0.569131 0.43086899999999995 0.294739 0.705261 0.418158 0.581842 0.746594 0.253406 0.5 0.5 0.5 0.5 0.5 0.5 0.5 0.5 0.134166 0.865834 0.563152 0.436848 0.112645 0.887355 0.688319 0.311681 0.552784 0.44721599999999995 0.227753 0.772247 0.481704 0.518296 0.0151147 0.9848853 0.5 0.5 0.5 0.5 0.5 0.5 0.5 0.5 0.5 0.5 0.5 0.5 0.5 0.5 0.5 0.5 0.5 0.5 0.5 0.5 0.5 0.5 0.5 0.5 0.5 0.5 0.5 0.5 0.5 0.5 0.5 0.5 0.5 0.5 0.5 0.5 0.5 0.5 0.5 0.5 0.5 0.5 0.5 0.5 0.5 0.5 0.5 0.5 0.5 0.5 0.5 0.5 0.5 0.5 0.5 0.5 0.5 0.5 0.5 0.5 0.5 0.5 0.5 0.5 0.5 0.5 0.5 0.5 0.5 0.5 0.5 0.5 0.5 0.5 0.5 0.5 0.5 0.5 0.5 0.5 0.5 0.5 0.5 0.5 0.635128 0.364872 0.609218 0.39078199999999996 0.758573 0.24142699999999995 0.376419 0.6235809999999999 0.5 0.5 0.5 0.5 0.5 0.5 0.5 0.5 0.5 0.5 0.5 0.5 0.5 0.5 0.5 0.5 0.5 0.5 0.5 0.5 0.5 0.5 0.5 0.5 0.5 0.5 0.5 0.5 0.5 0.5 0.5 0.5 0.5 0.5 0.5 0.5 0.5 0.5 0.5 0.5 0.967203 0.032796999999999965 0.864716 0.13528399999999996 0.45606 0.54394 0.725776 0.274224 0.5 0.5 0.5 0.5 0.373959 0.6260410000000001 0.322888 0.6771119999999999 0.169291 0.830709 0.696178 0.30382200000000004 0.5 0.5 0.5 0.5 0.5 0.5 0.5 0.5 0.5 0.5 0.5 0.5 0.5 0.5 0.5 0.5 0.143654 0.856346 0.932586 0.06741399999999997 0.332408 0.667592 0.528449 0.47155100000000005 0.5 0.5 0.5 0.5 0.5 0.5 0.5 0.5 0.5 0.5 0.5 0.5 0.5 0.5 0.5 0.5 0.5 0.5 0.5 0.5 0.5 0.5 0.5 0.5 0.270829 0.729171 0.414422 0.5855779999999999 0.291027 0.7089730000000001 0.359891 0.640109 0.5 0.5 0.5 0.5 0.5 0.5 0.5 0.5 0.5 0.5 0.5 0.5 0.5 0.5 0.5 0.5 0.926904 0.07309600000000005 0.00511587 0.99488413 0.696166 0.30383400000000005 0.189232 0.8107679999999999 0.5 0.5 0.5 0.5 0.5 0.5 0.5 0.5 0.5 0.5 0.5 0.5 0.5 0.5 0.5 0.5 0.0214751 0.9785249 0.51752 0.48248 0.12006 0.8799399999999999 0.381366 0.618634
-1 -226 2 0
-1 226 -2 0
1 -227 2 0
1 227 -2 0
-2 3 0
2 -3 0
-3 -4 0
3 4 0
-4 5 0
4 -5 0
-5 -6 0
5 6 0
-6 7 0
6 -7 0
-7 -8 0
7 8 0
-8 -9 0
8 9 0
-9 -10 0
9 10 0
-10 11 0
10 -11 0
-11 12 0
11 -12 0
-12 -13 0
12 13 0
-13 -14 0
13 14 0
-14 15 0
14 -15 0
-1 16 0
1 -16 0
-16 -2 -256 17 0
-16 -2 256 -17 0
-16 2 -257 17 0
-16 2 257 -17 0
16 -2 -258 17 0
16 -2 258 -17 0
16 2 -259 17 0
16 2 259 -17 0
-17 -3 18 0
-17 3 18 0
17 -3 18 0
17 3 -18 0
-18 -4 -264 19 0
-18 -4 264 -19 0
-18 4 -265 19 0
-18 4 265 -19 0
18 -4 -266 19 0
18 -4 266 -19 0
18 4 -267 19 0
18 4 267 -19 0
-19 -5 -268 20 0
-19 -5 268 -20 0
-19 5 -269 20 0
-19 5 269 -20 0
19 -5 -270 20 0
19 -5 270 -20 0
19 5 -271 20 0
19 5 271 -20 0
-20 -6 -21 0
-20 6 -21 0
20 -6 21 0
20 6 -21 0
-21 -7 22 0
-21 7 22 0
21 -7 22 0
21 7 -22 0
-22 -8 23 0
-22 8 -23 0
22 -8 23 0
22 8 23 0
-23 -9 -24 0
-23 9 -24 0
23 -9 -24 0
23 9 24 0
-24 -10 25 0
-24 10 -25 0
24 -10 25 0
24 10 -25 0
-25 -11 26 0
-25 11 -26 0
25 -11 -26 0
25 11 26 0
-26 -12 -27 0
-26 12 27 0
26 -12 -27 0
26 12 -27 0
-27 -13 -300 28 0
-27 -13 300 -28 0
-27 13 -301 28 0
-27 13 301 -28 0
27 -13 -302 28 0
27 -13 302 -28 0
27 13 -303 28 0
27 13 303 -28 0
-28 -14 -29 0
-28 14 29 0
28 -14 29 0
28 14 -29 0
-29 -15 30 0
-29 15 -30 0
29 -15 30 0
29 15 30 0
-16 31 0
16 -31 0
-31 -17 -32 0
-31 17 -32 0
31 -17 32 0
31 17 32 0
-32 -18 33 0
-32 18 33 0
32 -18 -33 0
32 18 33 0
-33 -19 34 0
-33 19 -34 0
33 -19 -34 0
33 19 -34 0
-34 -20 35 0
-34 20 -35 0
34 -20 -35 0
34 20 -35 0
-35 -21 -330 36 0
-35 -21 330 -36 0
-35 21 -331 36 0
-35 21 331 -36 0
35 -21 -332 36 0
35 -21 332 -36 0
35 21 -333 36 0
35 21 333 -36 0
-36 -22 -37 0
-36 22 37 0
36 -22 -37 0
36 22 37 0
-37 -23 -338 38 0
-37 -23 338 -38 0
-37 23 -339 38 0
-37 23 339 -38 0
37 -23 -340 38 0
37 -23 340 -38 0
37 23 -341 38 0
37 23 341 -38 0
-38 -24 -342 39 0
-38 -24 342 -39 0
-38 24 -343 39 0
-38 24 343 -39 0
38 -24 -344 39 0
38 -24 344 -39 0
38 24 -345 39 0
38 24 345 -39 0
-39 -25 40 0
-39 25 -40 0
39 -25 -40 0
39 25 40 0
-40 -26 -350 41 0
-40 -26 350 -41 0
-40 26 -351 41 0
-40 26 351 -41 0
40 -26 -352 41 0
40 -26 352 -41 0
40 26 -353 41 0
40 26 353 -41 0
-41 -27 -42 0
-41 27 -42 0
41 -27 42 0
41 27 42 0
-42 -28 43 0
-42 28 -43 0
42 -28 43 0
42 28 -43 0
-43 -29 44 0
-43 29 -44 0
43 -29 44 0
43 29 -44 0
-44 -30 -366 45 0
-44 -30 366 -45 0
-44 30 -367 45 0
-44 30 367 -45 0
44 -30 -368 45 0
44 -30 368 -45 0
44 30 -369 45 0
44 30 369 -45 0
-31 -46 0
31 46 0
-46 -32 -47 0
-46 32 -47 0
46 -32 -47 0
46 32 47 0
-47 -33 48 0
-47 33 -48 0
47 -33 48 0
47 33 -48 0
-48 -34 49 0
-48 34 49 0
48 -34 -49 0
48 34 49 0
-49 -35 -50 0
-49 35 -50 0
49 -35 50 0
49 35 50 0
-50 -36 51 0
-50 36 -51 0
50 -36 -51 0
50 36 51 0
-51 -37 52 0
-51 37 -52 0
51 -37 -52 0
51 37 52 0
-52 -38 53 0
-52 38 -53 0
52 -38 53 0
52 38 53 0
-53 -39 -400 54 0
-53 -39 400 -54 0
-53 39 -401 54 0
-53 39 401 -54 0
53 -39 -402 54 0
53 -39 402 -54 0
53 39 -403 54 0
53 39 403 -54 0
-54 -40 55 0
-54 40 -55 0
54 -40 55 0
54 40 55 0
-55 -41 -56 0
-55 41 56 0
55 -41 -56 0
55 41 56 0
-56 -42 57 0
-56 42 -57 0
56 -42 57 0
56 42 57 0
-57 -43 -58 0
-57 43 58 0
57 -43 -58 0
57 43 -58 0
-58 -44 -420 59 0
-58 -44 420 -59 0
-58 44 -421 59 0
-58 44 421 -59 0
58 -44 -422 59 0
58 -44 422 -59 0
58 44 -423 59 0
58 44 423 -59 0
-59 -45 60 0
-59 45 60 0
59 -45 60 0
59 45 -60 0
-46 61 0
46 -61 0
-61 -47 -430 62 0
-61 -47 430 -62 0
-61 47 -431 62 0
-61 47 431 -62 0
61 -47 -432 62 0
61 -47 432 -62 0
61 47 -433 62 0
61 47 433 -62 0
-62 -48 -434 63 0
-62 -48 434 -63 0
-62 48 -435 63 0
-62 48 435 -63 0
62 -48 -436 63 0
62 -48 436 -63 0
62 48 -437 63 0
62 48 437 -63 0
-63 -49 64 0
-63 49 64 0
63 -49 -64 0
63 49 64 0
-64 -50 65 0
-64 50 65 0
64 -50 -65 0
64 50 65 0
-65 -51 -66 0
-65 51 66 0
65 -51 66 0
65 51 66 0
-66 -52 -450 67 0
-66 -52 450 -67 0
-66 52 -451 67 0
-66 52 451 -67 0
66 -52 -452 67 0
66 -52 452 -67 0
66 52 -453 67 0
66 52 453 -67 0
-67 -53 68 0
-67 53 68 0
67 -53 68 0
67 53 -68 0
-68 -54 -69 0
-68 54 69 0
68 -54 -69 0
68 54 -69 0
-69 -55 -462 70 0
-69 -55 462 -70 0
-69 55 -463 70 0
-69 55 463 -70 0
69 -55 -464 70 0
69 -55 464 -70 0
69 55 -465 70 0
69 55 465 -70 0
-70 -56 -466 71 0
-70 -56 466 -71 0
-70 56 -467 71 0
-70 56 467 -71 0
70 -56 -468 71 0
70 -56 468 -71 0
70 56 -469 71 0
70 56 469 -71 0
-71 -57 72 0
-71 57 -72 0
71 -57 -72 0
71 57 -72 0
-72 -58 73 0
-72 58 73 0
72 -58 -73 0
72 58 73 0
-73 -59 -478 74 0
-73 -59 478 -74 0
-73 59 -479 74 0
-73 59 479 -74 0
73 -59 -480 74 0
73 -59 480 -74 0
73 59 -481 74 0
73 59 481 -74 0
-74 -60 75 0
-74 60 -75 0
74 -60 -75 0
74 60 -75 0
-61 -76 0
61 76 0
-76 -62 -77 0
-76 62 -77 0
76 -62 77 0
76 62 -77 0
-77 -63 -492 78 0
-77 -63 492 -78 0
-77 63 -493 78 0
-77 63 493 -78 0
77 -63 -494 78 0
77 -63 494 -78 0
77 63 -495 78 0
77 63 495 -78 0
-78 -64 -496 79 0
-78 -64 496 -79 0
-78 64 -497 79 0
-78 64 497 -79 0
78 -64 -498 79 0
78 -64 498 -79 0
78 64 -499 79 0
78 64 499 -79 0
-79 -65 80 0
-79 65 -80 0
79 -65 -80 0
79 65 -80 0
-80 -66 -504 81 0
-80 -66 504 -81 0
-80 66 -505 81 0
-80 66 505 -81 0
80 -66 -506 81 0
80 -66 506 -81 0
80 66 -507 81 0
80 66 507 -81 0
-81 -67 -82 0
-81 67 -82 0
81 -67 82 0
81 67 -82 0
-82 -68 -512 83 0
-82 -68 512 -83 0
-82 68 -513 83 0
-82 68 513 -83 0
82 -68 -514 83 0
82 -68 514 -83 0
82 68 -515 83 0
82 68 515 -83 0
-83 -69 -516 84 0
-83 -69 516 -84 0
-83 69 -517 84 0
-83 69 517 -84 0
83 -69 -518 84 0
83 -69 518 -84 0
83 69 -519 84 0
83 69 519 -84 0
-84 -70 85 0
-84 70 85 0
84 -70 85 0
84 70 -85 0
-85 -71 -524 86 0
-85 -71 524 -86 0
-85 71 -525 86 0
-85 71 525 -86 0
85 -71 -526 86 0
85 -71 526 -86 0
85 71 -527 86 0
85 71 527 -86 0
-86 -72 -528 87 0
-86 -72 528 -87 0
-86 72 -529 87 0
-86 72 529 -87 0
86 -72 -530 87 0
86 -72 530 -87 0
86 72 -531 87 0
86 72 531 -87 0
-87 -73 -88 0
-87 73 -88 0
87 -73 88 0
87 73 88 0
-88 -74 -536 89 0
-88 -74 536 -89 0
-88 74 -537 89 0
-88 74 537 -89 0
88 -74 -538 89 0
88 -74 538 -89 0
88 74 -539 89 0
88 74 539 -89 0
-89 -75 -90 0
-89 75 90 0
89 -75 90 0
89 75 90 0
-76 -91 0
76 91 0
-91 -77 92 0
-91 77 92 0
91 -77 92 0
91 77 -92 0
-92 -78 -93 0
-92 78 -93 0
92 -78 -93 0
92 78 93 0
-93 -79 -554 94 0
-93 -79 554 -94 0
-93 79 -555 94 0
-93 79 555 -94 0
93 -79 -556 94 0
93 -79 556 -94 0
93 79 -557 94 0
93 79 557 -94 0
-94 -80 -95 0
-94 80 -95 0
94 -80 95 0
94 80 -95 0
-95 -81 96 0
-95 81 -96 0
95 -81 96 0
95 81 96 0
-96 -82 -566 97 0
-96 -82 566 -97 0
-96 82 -567 97 0
-96 82 567 -97 0
96 -82 -568 97 0
96 -82 568 -97 0
96 82 -569 97 0
96 82 569 -97 0
-97 -83 98 0
-97 83 -98 0
97 -83 -98 0
97 83 -98 0
-98 -84 99 0
-98 84 -99 0
98 -84 99 0
98 84 99 0
-99 -85 -578 100 0
-99 -85 578 -100 0
-99 85 -579 100 0
-99 85 579 -100 0
99 -85 -580 100 0
99 -85 580 -100 0
99 85 -581 100 0
99 85 581 -100 0
-100 -86 101 0
-100 86 -101 0
100 -86 101 0
100 86 -101 0
-101 -87 -586 102 0
-101 -87 586 -102 0
-101 87 -587 102 0
-101 87 587 -102 0
101 -87 -588 102 0
101 -87 588 -102 0
101 87 -589 102 0
101 87 589 -102 0
-102 -88 103 0
-102 88 -103 0
102 -88 103 0
102 88 103 0
-103 -89 -594 104 0
-103 -89 594 -104 0
-103 89 -595 104 0
-103 89 595 -104 0
103 -89 -596 104 0
103 -89 596 -104 0
103 89 -597 104 0
103 89 597 -104 0
-104 -90 -598 105 0
-104 -90 598 -105 0
-104 90 -599 105 0
-104 90 599 -105 0
104 -90 -600 105 0
104 -90 600 -105 0
104 90 -601 105 0
104 90 601 -105 0
-91 106 0
91 -106 0
-106 -92 -107 0
-106 92 -107 0
106 -92 107 0
106 92 107 0
-107 -93 108 0
-107 93 -108 0
107 -93 108 0
107 93 108 0
-108 -94 -109 0
-108 94 -109 0
108 -94 109 0
108 94 -109 0
-109 -95 110 0
-109 95 110 0
109 -95 110 0
109 95 -110 0
-110 -96 111 0
-110 96 -111 0
110 -96 111 0
110 96 -111 0
-111 -97 -112 0
-111 97 -112 0
111 -97 -112 0
111 97 112 0
-112 -98 -113 0
-112 98 113 0
112 -98 -113 0
112 98 -113 0
-113 -99 114 0
-113 99 -114 0
113 -99 114 0
113 99 114 0
-114 -100 115 0
-114 100 115 0
114 -100 115 0
114 100 -115 0
-115 -101 116 0
-115 101 116 0
115 -101 116 0
115 101 -116 0
-116 -102 117 0
-116 102 117 0
116 -102 117 0
116 102 -117 0
-117 -103 -118 0
-117 103 -118 0
117 -103 118 0
117 103 -118 0
-118 -104 119 0
-118 104 -119 0
118 -104 119 0
118 104 119 0
-119 -105 -656 120 0
-119 -105 656 -120 0
-119 105 -657 120 0
-119 105 657 -120 0
119 -105 -658 120 0
119 -105 658 -120 0
119 105 -659 120 0
119 105 659 -120 0
-106 121 0
106 -121 0
-121 -107 122 0
-121 107 122 0
121 -107 122 0
121 107 -122 0
-122 -108 -123 0
-122 108 -123 0
122 -108 123 0
122 108 123 0
-123 -109 -670 124 0
-123 -109 670 -124 0
-123 109 -671 124 0
-123 109 671 -124 0
123 -109 -672 124 0
123 -109 672 -124 0
123 109 -673 124 0
123 109 673 -124 0
-124 -110 125 0
-124 110 125 0
124 -110 125 0
124 110 -125 0
-125 -111 126 0
-125 111 -126 0
125 -111 126 0
125 111 126 0
-126 -112 -682 127 0
-126 -112 682 -127 0
-126 112 -683 127 0
-126 112 683 -127 0
126 -112 -684 127 0
126 -112 684 -127 0
126 112 -685 127 0
126 112 685 -127 0
-127 -113 -686 128 0
-127 -113 686 -128 0
-127 113 -687 128 0
-127 113 687 -128 0
127 -113 -688 128 0
127 -113 688 -128 0
127 113 -689 128 0
127 113 689 -128 0
-128 -114 129 0
-128 114 129 0
128 -114 129 0
128 114 -129 0
-129 -115 -130 0
-129 115 -130 0
129 -115 130 0
129 115 -130 0
-130 -116 131 0
-130 116 131 0
130 -116 131 0
130 116 -131 0
-131 -117 -702 132 0
-131 -117 702 -132 0
-131 117 -703 132 0
-131 117 703 -132 0
131 -117 -704 132 0
131 -117 704 -132 0
131 117 -705 132 0
131 117 705 -132 0
-132 -118 133 0
-132 118 133 0
132 -118 133 0
132 118 -133 0
-133 -119 -710 134 0
-133 -119 710 -134 0
-133 119 -711 134 0
-133 119 711 -134 0
133 -119 -712 134 0
133 -119 712 -134 0
133 119 -713 134 0
133 119 713 -134 0
-134 -120 135 0
-134 120 -135 0
134 -120 135 0
134 120 -135 0
-121 -136 0
121 136 0
-136 -122 -137 0
-136 122 137 0
136 -122 -137 0
136 122 -137 0
-137 -123 -724 138 0
-137 -123 724 -138 0
-137 123 -725 138 0
-137 123 725 -138 0
137 -123 -726 138 0
137 -123 726 -138 0
137 123 -727 138 0
137 123 727 -138 0
-138 -124 -139 0
-138 124 139 0
138 -124 -139 0
138 124 139 0
-139 -125 140 0
-139 125 -140 0
139 -125 -140 0
139 125 -140 0
-140 -126 141 0
-140 126 -141 0
140 -126 141 0
140 126 141 0
-141 -127 142 0
-141 127 -142 0
141 -127 142 0
141 127 142 0
-142 -128 143 0
-142 128 143 0
142 -128 -143 0
142 128 143 0
-143 -129 -748 144 0
-143 -129 748 -144 0
-143 129 -749 144 0
-143 129 749 -144 0
143 -129 -750 144 0
143 -129 750 -144 0
143 129 -751 144 0
143 129 751 -144 0
-144 -130 145 0
-144 130 -145 0
144 -130 145 0
144 130 145 0
-145 -131 -146 0
-145 131 -146 0
145 -131 146 0
145 131 -146 0
-146 -132 -760 147 0
-146 -132 760 -147 0
-146 132 -761 147 0
-146 132 761 -147 0
146 -132 -762 147 0
146 -132 762 -147 0
146 132 -763 147 0
146 132 763 -147 0
-147 -133 148 0
-147 133 -148 0
147 -133 148 0
147 133 -148 0
-148 -134 149 0
-148 134 149 0
148 -134 -149 0
148 134 149 0
-149 -135 -150 0
-149 135 150 0
149 -135 150 0
149 135 150 0
-136 151 0
136 -151 0
-151 -137 -152 0
-151 137 152 0
151 -137 -152 0
151 137 -152 0
-152 -138 -782 153 0
-152 -138 782 -153 0
-152 138 -783 153 0
-152 138 783 -153 0
152 -138 -784 153 0
152 -138 784 -153 0
152 138 -785 153 0
152 138 785 -153 0
-153 -139 -786 154 0
-153 -139 786 -154 0
-153 139 -787 154 0
-153 139 787 -154 0
153 -139 -788 154 0
153 -139 788 -154 0
153 139 -789 154 0
153 139 789 -154 0
-154 -140 -155 0
-154 140 -155 0
154 -140 155 0
154 140 155 0
-155 -141 156 0
-155 141 -156 0
155 -141 156 0
155 141 156 0
-156 -142 157 0
-156 142 -157 0
156 -142 -157 0
156 142 -157 0
-157 -143 -158 0
-157 143 -158 0
157 -143 -158 0
157 143 158 0
-158 -144 -806 159 0
-158 -144 806 -159 0
-158 144 -807 159 0
-158 144 807 -159 0
158 -144 -808 159 0
158 -144 808 -159 0
158 144 -809 159 0
158 144 809 -159 0
-159 -145 160 0
-159 145 160 0
159 -145 160 0
159 145 -160 0
-160 -146 161 0
-160 146 -161 0
160 -146 -161 0
160 146 161 0
-161 -147 -162 0
-161 147 -162 0
161 -147 -162 0
161 147 162 0
-162 -148 -822 163 0
-162 -148 822 -163 0
-162 148 -823 163 0
-162 148 823 -163 0
162 -148 -824 163 0
162 -148 824 -163 0
162 148 -825 163 0
162 148 825 -163 0
-163 -149 164 0
-163 149 164 0
163 -149 164 0
163 149 -164 0
-164 -150 -165 0
-164 150 -165 0
164 -150 -165 0
164 150 165 0
-151 166 0
151 -166 0
-166 -152 -167 0
-166 152 -167 0
166 -152 167 0
166 152 167 0
-167 -153 168 0
-167 153 -168 0
167 -153 168 0
167 153 168 0
-168 -154 169 0
-168 154 169 0
168 -154 -169 0
168 154 -169 0
-169 -155 -848 170 0
-169 -155 848 -170 0
-169 155 -849 170 0
-169 155 849 -170 0
169 -155 -850 170 0
169 -155 850 -170 0
169 155 -851 170 0
169 155 851 -170 0
-170 -156 171 0
-170 156 -171 0
170 -156 171 0
170 156 171 0
-171 -157 172 0
-171 157 -172 0
171 -157 172 0
171 157 172 0
-172 -158 -860 173 0
-172 -158 860 -173 0
-172 158 -861 173 0
-172 158 861 -173 0
172 -158 -862 173 0
172 -158 862 -173 0
172 158 -863 173 0
172 158 863 -173 0
-173 -159 174 0
-173 159 -174 0
173 -159 174 0
173 159 -174 0
-174 -160 175 0
-174 160 175 0
174 -160 175 0
174 160 -175 0
-175 -161 176 0
-175 161 176 0
175 -161 -176 0
175 161 -176 0
-176 -162 177 0
-176 162 177 0
176 -162 177 0
176 162 -177 0
-177 -163 178 0
-177 163 -178 0
177 -163 -178 0
177 163 -178 0
-178 -164 -884 179 0
-178 -164 884 -179 0
-178 164 -885 179 0
-178 164 885 -179 0
178 -164 -886 179 0
178 -164 886 -179 0
178 164 -887 179 0
178 164 887 -179 0
-179 -165 -180 0
-179 165 -180 0
179 -165 180 0
179 165 180 0
-166 -181 0
166 181 0
-181 -167 -182 0
-181 167 182 0
181 -167 -182 0
181 167 182 0
-182 -168 -183 0
-182 168 183 0
182 -168 -183 0
182 168 183 0
-183 -169 -184 0
-183 169 184 0
183 -169 -184 0
183 169 -184 0
-184 -170 185 0
-184 170 -185 0
184 -170 185 0
184 170 185 0
-185 -171 -186 0
-185 171 -186 0
185 -171 186 0
185 171 186 0
-186 -172 187 0
-186 172 -187 0
186 -172 -187 0
186 172 -187 0
-187 -173 188 0
-187 173 188 0
187 -173 -188 0
187 173 188 0
-188 -174 -922 189 0
-188 -174 922 -189 0
-188 174 -923 189 0
-188 174 923 -189 0
188 -174 -924 189 0
188 -174 924 -189 0
188 174 -925 189 0
188 174 925 -189 0
-189 -175 190 0
-189 175 190 0
189 -175 190 0
189 175 -190 0
-190 -176 -930 191 0
-190 -176 930 -191 0
-190 176 -931 191 0
-190 176 931 -191 0
190 -176 -932 191 0
190 -176 932 -191 0
190 176 -933 191 0
190 176 933 -191 0
-191 -177 -934 192 0
-191 -177 934 -192 0
-191 177 -935 192 0
-191 177 935 -192 0
191 -177 -936 192 0
191 -177 936 -192 0
191 177 -937 192 0
191 177 937 -192 0
-192 -178 -193 0
-192 178 193 0
192 -178 -193 0
192 178 -193 0
-193 -179 194 0
-193 179 194 0
193 -179 -194 0
193 179 -194 0
-194 -180 195 0
-194 180 -195 0
194 -180 -195 0
194 180 195 0
-181 196 0
181 -196 0
-196 -182 -197 0
-196 182 197 0
196 -182 -197 0
196 182 197 0
-197 -183 198 0
-197 183 -198 0
197 -183 -198 0
197 183 198 0
-198 -184 -199 0
-198 184 199 0
198 -184 199 0
198 184 -199 0
-199 -185 -200 0
-199 185 200 0
199 -185 200 0
199 185 200 0
-200 -186 201 0
-200 186 -201 0
200 -186 201 0
200 186 201 0
-201 -187 -202 0
-201 187 -202 0
201 -187 202 0
201 187 202 0
-202 -188 -203 0
-202 188 -203 0
202 -188 203 0
202 188 203 0
-203 -189 -980 204 0
-203 -189 980 -204 0
-203 189 -981 204 0
-203 189 981 -204 0
203 -189 -982 204 0
203 -189 982 -204 0
203 189 -983 204 0
203 189 983 -204 0
-204 -190 -205 0
-204 190 205 0
204 -190 205 0
204 190 -205 0
-205 -191 -206 0
-205 191 206 0
205 -191 -206 0
205 191 206 0
-206 -192 -207 0
-206 192 207 0
206 -192 -207 0
206 192 -207 0
-207 -193 208 0
-207 193 -208 0
207 -193 -208 0
207 193 -208 0
-208 -194 209 0
-208 194 -209 0
208 -194 -209 0
208 194 209 0
-209 -195 -1004 210 0
-209 -195 1004 -210 0
-209 195 -1005 210 0
-209 195 1005 -210 0
209 -195 -1006 210 0
209 -195 1006 -210 0
209 195 -1007 210 0
209 195 1007 -210 0
-196 211 0
196 -211 0
-211 -197 -1010 212 0
-211 -197 1010 -212 0
-211 197 -1011 212 0
-211 197 1011 -212 0
211 -197 -1012 212 0
211 -197 1012 -212 0
211 197 -1013 212 0
211 197 1013 -212 0
-212 -198 213 0
-212 198 213 0
212 -198 -213 0
212 198 213 0
-213 -199 214 0
-213 199 214 0
213 -199 -214 0
213 199 214 0
-214 -200 -1022 215 0
-214 -200 1022 -215 0
-214 200 -1023 215 0
-214 200 1023 -215 0
214 -200 -1024 215 0
214 -200 1024 -215 0
214 200 -1025 215 0
214 200 1025 -215 0
-215 -201 216 0
-215 201 216 0
215 -201 -216 0
215 201 216 0
-216 -202 -217 0
-216 202 217 0
216 -202 -217 0
216 202 -217 0
-217 -203 218 0
-217 203 218 0
217 -203 -218 0
217 203 -218 0
-218 -204 -1038 219 0
-218 -204 1038 -219 0
-218 204 -1039 219 0
-218 204 1039 -219 0
218 -204 -1040 219 0
218 -204 1040 -219 0
218 204 -1041 219 0
218 204 1041 -219 0
-219 -205 -220 0
-219 205 -220 0
219 -205 -220 0
219 205 220 0
-220 -206 -221 0
-220 206 221 0
220 -206 221 0
220 206 221 0
-221 -207 -1050 222 0
-221 -207 1050 -222 0
-221 207 -1051 222 0
-221 207 1051 -222 0
221 -207 -1052 222 0
221 -207 1052 -222 0
221 207 -1053 222 0
221 207 1053 -222 0
-222 -208 -223 0
-222 208 -223 0
222 -208 -223 0
222 208 223 0
-223 -209 224 0
-223 209 -224 0
223 -209 224 0
223 209 -224 0
-224 -210 -1062 225 0
-224 -210 1062 -225 0
-224 210 -1063 225 0
-224 210 1063 -225 0
224 -210 -1064 225 0
224 -210 1064 -225 0
224 210 -1065 225 0
224 210 1065 -225 0
225 0
