data/benchmarks/bayes/75-15-10-q.gr
p tw 1065 1304
166 181
63 434
198 213
68 512
8 9
44 420
40 41
199 214
41 42
189 923
73 74
82 568
109 671
144 808
74 75
106 107
85 578
7 21
107 108
77 494
179 887
53 402
40 54
123 726
140 141
73 87
173 174
94 555
206 207
134 713
159 806
164 884
207 208
139 153
172 186
205 220
172 860
138 724
173 187
30 367
119 710
206 220
89 538
68 515
44 423
71 526
113 114
127 686
154 789
2 17
146 147
47 433
3 18
74 536
192 937
35 50
179 180
23 341
219 1039
36 51
85 581
68 83
112 684
82 512
174 924
69 84
101 116
26 351
113 127
213 214
83 513
2 259
102 117
59 421
64 499
146 160
147 762
135 150
123 670
179 193
129 750
62 431
212 1013
99 578
168 183
105 658
124 671
38 339
10 11
100 579
137 726
43 44
17 257
76 77
9 24
79 497
27 41
42 57
178 884
60 74
75 90
74 539
218 1041
108 123
13 300
44 367
133 710
109 124
82 515
2 226
142 157
16 17
175 190
85 525
193 207
61 433
88 536
49 50
158 860
208 223
37 341
50 51
82 83
188 924
83 84
126 683
115 116
40 351
34 48
16 259
116 117
41 352
78 499
67 81
167 168
49 63
149 150
63 492
100 114
200 201
82 96
182 183
20 270
143 749
133 147
115 129
119 657
215 216
189 981
122 137
167 181
200 214
82 567
144 807
77 493
88 539
179 886
158 863
53 401
123 725
11 26
44 59
94 554
70 462
113 689
132 702
96 111
129 144
89 596
162 177
4 265
144 159
173 860
87 528
210 1007
195 210
63 436
18 19
68 514
177 192
44 422
210 225
189 925
195 1005
109 673
128 686
21 331
3 17
103 104
104 594
85 86
23 340
36 50
203 981
85 580
136 137
118 119
174 923
69 83
169 170
144 751
83 512
151 152
120 659
102 116
202 203
59 420
64 498
103 117
158 807
135 149
159 808
164 886
168 182
97 567
124 670
100 578
169 183
79 555
137 725
25 26
1 226
202 216
138 726
30 369
119 712
9 23
28 301
127 688
31 46
32 47
74 538
176 177
44 366
65 80
219 1041
109 123
209 210
45 367
82 514
191 192
98 113
142 156
26 353
83 515
224 225
131 146
59 423
175 189
85 524
209 1005
164 179
61 432
176 190
86 525
208 222
123 672
5 271
37 340
6 7
62 433
197 212
99 580
209 223
124 673
38 341
39 40
188 923
100 581
126 682
72 73
41 351
78 498
5 19
17 259
38 53
210 1062
79 499
6 20
71 86
178 886
143 748
39 53
104 119
119 656
189 980
72 86
105 120
137 152
44 369
39 403
138 153
133 712
12 13
171 186
13 14
204 219
85 527
46 47
78 79
88 538
158 862
79 80
11 25
153 783
215 1023
12 26
112 113
44 58
191 931
126 685
40 353
1 16
45 59
145 146
78 92
178 179
170 849
19 271
89 595
111 125
211 212
143 751
4 264
112 126
212 213
144 158
66 504
119 659
210 1006
189 983
145 159
177 191
178 192
210 224
224 1062
163 823
82 569
21 330
144 809
59 478
203 980
7 22
77 495
204 981
8 23
53 403
40 55
123 727
184 185
41 56
73 88
94 556
74 89
70 464
106 121
132 704
159 807
164 885
107 122
97 566
139 154
52 451
79 554
140 155
172 187
184 198
172 861
14 15
138 725
117 702
173 188
30 368
87 530
47 48
206 221
48 49
80 81
127 687
81 82
195 1007
128 688
14 28
104 596
114 115
48 435
203 983
47 61
147 148
24 343
174 925
80 94
113 128
83 514
59 422
181 182
146 161
209 1004
158 809
214 215
179 194
129 751
62 432
21 22
97 569
105 659
124 672
147 161
180 195
38 340
100 580
54 55
137 727
87 88
88 89
79 498
28 303
178 885
21 35
121 122
153 154
10 25
54 68
154 155
105 119
43 58
87 101
13 301
187 188
44 368
76 91
120 134
45 369
220 221
153 167
85 526
209 1007
86 527
62 435
153 782
215 1022
38 343
188 925
191 930
126 684
16 31
41 353
49 64
210 1064
170 848
63 493
82 97
20 271
143 750
83 98
115 130
119 658
189 982
116 131
167 182
96 567
149 164
163 822
200 215
23 24
225 1062
182 197
56 466
24 25
56 57
57 58
89 90
204 980
8 22
153 785
27 300
41 55
141 142
23 37
123 124
74 88
70 463
174 175
56 70
156 157
132 703
138 783
107 121
200 1023
89 103
189 190
170 851
52 450
176 931
89 597
140 154
222 223
90 598
141 155
4 266
173 861
87 529
66 506
174 188
63 437
155 849
207 221
69 516
63 64
224 1064
163 825
195 1006
128 687
21 332
104 595
48 434
59 480
203 982
18 33
24 342
130 131
204 983
148 822
163 164
196 197
103 118
158 808
70 466
159 809
136 151
164 887
97 568
180 194
118 133
169 184
79 556
151 166
172 863
1 227
202 217
138 727
117 704
55 463
119 713
28 302
77 78
127 689
10 24
152 782
110 111
66 450
25 40
43 57
67 451
143 144
72 529
104 598
48 437
18 265
45 368
24 345
77 91
169 848
83 516
110 124
209 1006
17 18
143 157
176 191
86 526
123 673
35 331
62 434
99 581
209 224
38 342
162 822
84 85
39 342
5 20
17 31
117 118
210 1063
6 21
50 64
178 887
39 54
83 97
183 184
72 87
84 98
93 555
116 130
216 217
13 303
198 199
69 463
96 566
139 787
117 131
133 713
149 163
222 1050
150 164
204 1038
182 196
183 197
86 529
62 437
153 784
132 761
215 1024
38 345
12 27
191 932
13 28
45 60
197 1011
138 782
103 595
46 61
78 93
200 1022
87 587
170 850
176 930
63 495
79 94
111 126
112 127
66 505
58 421
145 160
155 848
19 20
96 569
178 193
224 1063
163 824
20 21
52 53
225 1064
56 468
53 54
59 479
78 492
86 87
18 32
54 400
204 982
19 33
119 120
153 787
27 302
52 66
152 153
94 557
70 465
85 99
185 186
132 705
138 785
71 466
186 187
118 132
218 219
52 452
119 133
219 220
146 761
184 199
172 862
90 600
117 703
152 166
173 863
55 462
87 531
59 60
155 851
185 199
211 1011
69 518
92 93
25 39
101 586
125 126
128 689
67 450
14 29
72 528
104 597
158 159
48 436
15 30
105 598
47 62
18 264
59 73
24 344
159 160
80 504
48 63
19 265
80 95
92 106
192 193
81 96
84 516
125 139
114 129
70 468
158 172
35 330
147 162
191 205
36 331
73 478
22 23
55 465
55 56
21 36
152 784
66 452
54 69
93 554
72 531
87 102
13 302
69 462
139 786
88 103
131 702
18 267
120 135
177 934
121 136
153 168
83 518
154 169
28 29
86 528
187 202
35 333
62 436
132 760
29 30
61 62
38 344
62 63
94 95
13 27
197 1010
95 96
127 128
103 594
87 586
210 1065
28 42
128 129
160 161
63 494
79 93
161 162
94 108
194 195
58 420
93 557
127 141
69 465
96 568
139 789
222 1052
160 174
225 1063
204 1040
56 467
207 1050
153 786
27 301
134 135
154 787
23 38
191 934
56 71
138 784
200 1024
57 72
87 589
89 104
201 202
176 932
90 105
146 760
134 148
90 599
141 156
4 267
123 138
173 862
66 507
58 423
174 189
155 850
156 171
211 1010
207 222
69 517
189 204
212 1011
224 1065
31 32
21 333
102 586
64 65
59 481
15 29
78 494
97 98
54 402
48 62
19 264
148 149
148 823
30 44
63 78
81 504
81 95
114 128
70 467
71 468
221 1050
36 330
79 557
148 162
4 5
74 478
117 705
37 38
55 464
196 211
70 71
152 783
66 451
214 1023
101 588
67 452
190 931
72 530
104 599
155 156
137 138
105 600
88 102
18 266
188 189
170 171
80 506
77 92
19 267
221 222
169 849
83 517
203 204
110 125
154 168
84 518
143 158
155 169
187 201
35 332
188 202
36 333
73 480
162 823
51 52
39 343
17 32
179 884
50 65
51 65
84 99
93 556
134 710
69 464
139 788
117 132
131 704
222 1051
150 165
177 936
204 1039
183 198
86 530
58 59
132 762
215 1025
127 683
154 786
91 92
191 933
24 38
47 430
124 125
192 934
197 1012
23 338
103 596
57 71
87 588
157 158
139 140
58 72
90 104
190 191
144 749
172 173
120 657
2 256
123 137
223 224
64 496
58 422
124 138
156 170
157 171
189 203
212 1010
190 204
225 1065
56 469
78 493
207 1052
54 401
19 34
153 788
63 77
27 303
20 35
52 67
191 936
53 68
85 100
218 1038
71 467
86 101
130 144
52 453
119 134
146 762
163 177
90 601
152 167
26 27
185 200
61 430
211 1012
5 269
27 28
37 338
186 201
69 519
214 1022
101 587
190 930
93 94
102 588
16 256
78 496
105 599
26 40
126 127
59 74
80 505
19 266
92 107
148 825
81 506
84 517
125 140
70 469
93 107
193 194
158 173
39 401
126 140
221 1052
159 174
191 206
36 332
73 479
33 34
192 207
74 480
34 35
66 67
67 68
99 100
100 101
132 133
152 785
66 453
33 47
133 134
214 1025
22 37
190 933
104 601
66 80
166 167
113 686
55 70
131 703
99 113
199 200
177 935
19 269
169 851
132 146
83 519
165 179
210 1004
198 212
199 213
127 682
189 922
109 670
162 825
39 345
28 43
29 44
61 76
144 748
205 206
120 656
62 77
94 109
95 110
127 142
134 712
128 143
222 1053
160 175
2 3
204 1041
161 176
205 219
3 4
35 36
194 209
30 366
207 1051
36 37
68 69
89 537
69 70
101 102
71 525
20 34
127 685
154 788
2 16
191 935
102 103
53 67
47 432
192 936
35 49
86 100
200 1025
219 1038
68 82
112 683
168 169
176 933
101 115
26 350
134 149
2 258
147 761
9 10
5 268
129 749
186 200
62 430
212 1012
42 43
105 657
201 216
38 338
102 587
108 109
78 495
17 256
54 403
109 110
79 496
148 824
30 45
81 505
42 56
142 143
75 89
175 176
64 79
218 1040
108 122
208 209
39 400
71 469
221 1051
159 173
97 112
148 163
192 206
74 479
181 196
5 6
214 1024
101 589
4 19
40 350
67 453
22 36
122 123
190 932
104 600
16 258
37 52
55 69
105 601
70 85
80 507
19 268
169 850
20 269
84 519
122 136
155 170
188 203
11 12
170 185
73 481
82 566
162 824
44 45
203 218
144 806
39 344
96 97
77 492
179 885
29 43
53 400
129 130
123 724
111 112
62 76
162 163
144 145
51 66
95 109
134 711
177 178
113 688
96 110
128 142
131 705
177 937
129 143
161 175
162 176
194 208
86 531
195 209
63 435
89 536
68 513
132 763
44 421
71 524
127 684
189 924
195 1004
109 672
24 39
47 431
192 935
197 1013
23 339
103 597
85 579
112 682
174 922
58 73
144 750
120 658
2 257
91 106
64 497
217 218
147 760
124 139
158 806
129 748
157 172
105 656
201 215
190 205
137 724
32 33
207 1053
65 66
119 711
89 539
98 99
28 300
153 789
71 527
131 132
191 937
32 46
64 78
164 165
74 537
218 1039
65 79
97 111
219 1040
197 198
130 145
112 685
45 366
82 513
98 112
146 763
163 178
26 352
131 145
147 763
38 39
61 431
164 178
211 1013
86 524
123 671
5 270
37 339
71 72
197 211
99 579
188 922
4 18
104 105
102 589
16 257
37 51
41 350
78 497
26 41
17 258
38 52
138 139
70 84
27 42
71 85
171 172
81 507
20 268
60 75
104 118
204 205
93 108
137 151
39 402
126 141
221 1053
138 152
170 184
133 711
171 185
2 227
203 217
74 481
1 2
204 218
193 208
88 537
158 861
33 48
40 352
34 49
66 81
113 687
67 82
99 114
19 270
89 594
100 115
132 147
133 148
165 180
210 1005
7 8
